
-----MAT Begins----
2147483646 2147483646 2147483646 2147483646 2147483646 2147483646 2147483646 2147483646 2147483646 2147483646 2147483646 2147483646 2147483646 2147483646 2147483646 2147483646 2147483646 2147483646 2147483646 2147483646 2147483646 2147483646 2147483646 2147483646 2147483646 2147483646 2147483646 2147483646 2147483646 2147483646 2147483646 
0 2147483646 2147483646 2147483646 2147483646 2147483646 2147483646 2147483646 2147483646 2147483646 2147483646 2147483646 2147483646 2147483646 2147483646 2147483646 2147483646 2147483646 2147483646 2147483646 2147483646 2147483646 2147483646 2147483646 2147483646 1 2147483646 2147483646 2147483646 2147483646 2147483646 
0 2147483646 2147483646 2147483646 2147483646 2147483646 2147483646 2147483646 2147483646 2147483646 1 2147483646 2147483646 2147483646 2147483646 2147483646 2147483646 2147483646 2147483646 2147483646 2 2147483646 2147483646 2147483646 2147483646 1 2147483646 2147483646 2147483646 2147483646 3 
0 2147483646 2147483646 2147483646 2147483646 1 2147483646 2147483646 2147483646 2147483646 1 2147483646 2147483646 2147483646 2147483646 2 2147483646 2147483646 2147483646 2147483646 2 2147483646 2147483646 2147483646 2147483646 1 2147483646 2147483646 2147483646 2147483646 2 
0 -698269374 -1 6418173 1998072316 1 1995690021 1998072316 1 1981338897 1 1998072336 -1591347306 1 4 2 6418201 1 8890673 274269 2 1988353025 1998142534 23 6418889 1 -698265950 -1 6418205 1995590681 2 
-----MAT Ends------
optimal answer = 2